50	100	100	100
89	60	44
13	35	18
88	17	54
47	34	99
59	19	98
86	27	47
60	9	16
94	12	86
56	56	30
82	19	4
18	62	55
72	49	43
16	27	77
1	53	41
31	89	53
51	4	32
44	18	99
92	56	42
23	51	1
69	89	59
78	66	30
32	67	89
39	29	56
31	52	24
11	5	70
31	6	64
53	11	68
27	29	35
83	2	87
51	72	48
88	58	46
72	2	16
6	20	34
85	91	49
63	5	66
66	63	74
79	26	24
89	87	16
31	73	85
22	35	74
2	40	63
68	14	25
65	77	78
81	25	6
20	71	5
45	60	53
16	85	64
78	70	23
58	81	62
30	31	40
